537751
46,31,37,39,78,75,15,25,33,6,53,99,104,9,77,106,42,12,36,86,17,34,1,27,32,45,21,64,90,11,73,24,28,44,43,76,89,40,47,97,69,98,41,22,13,60,49,63,35,105,96,101,3,94,38,95,54,30,83,85,70,14,4,87,66,59,57,92,20,16,103,61,26,62,93,19,71,67,18,72,55,50,48,81,52,65,88,5,29,58,84,79,23,51,82,68,7,74,8,2,100,10,91,80,102,56